assets/logs/2_8x8_clingo/2_8x8_clingo.solution.log

---------------------------------
|  1|  2| 20| 55| 49| 30| 24|  0|
---------------------------------
| 18| 53| 47| 32| 22|  1| 46| 28|
---------------------------------
|  4| 10| 17| 51| 45| 26| 41|  1|
---------------------------------
| 19| 16| 11|  8| 34| 44|  0| 48|
---------------------------------
| 12|  6| 21| 15|  9| 43| 36| 39|
---------------------------------
|  3| 13| 14| 25| 42| 33| 50|  1|
---------------------------------
|  1| 23|  1|  7| 29| 54| 37| 38|
---------------------------------
|  0|  5| 27| 56| 35| 40| 31| 52|
---------------------------------

| n = 8 | k = 6 | coverage = 61, 95.3125%
 Time 299.991
 Name 2_8x8_clingo

