assets/logs/2_8x8_clingo/2_8x8_clingo.log
clingo version 5.4.0
Reading from ...sets/logs/2_8x8_clingo/knights_tour.lp ...
Solving...
Answer: 1
occ(1,2,6) occ(1,7,3) occ(1,1,1) occ(1,3,8) occ(1,7,1) occ(1,6,8) occ(2,1,2) occ(3,6,1) coverage(6)
Optimization: -6
Answer: 2
occ(1,2,6) occ(1,7,3) occ(1,1,1) occ(1,3,8) occ(1,7,1) occ(1,6,8) occ(2,1,2) occ(3,6,1) coverage(40) occ(11,1,4) occ(25,1,5) occ(26,1,6) occ(36,1,3) occ(13,2,2) occ(17,2,4) occ(23,2,7) occ(24,2,8) occ(30,2,3) occ(34,2,1) occ(4,3,1) occ(9,3,3) occ(19,3,6) occ(27,3,4) occ(28,3,5) occ(38,3,2) occ(7,4,5) occ(8,4,4) occ(15,4,3) occ(21,4,8) occ(22,4,7) occ(32,4,2) occ(49,4,6) occ(5,5,3) occ(6,5,2) occ(10,5,6) occ(29,5,5) occ(33,5,1) occ(41,5,7) occ(51,5,8) occ(16,6,4) occ(20,6,6) occ(31,6,3) occ(47,6,7) occ(55,6,5) occ(12,7,5) occ(35,7,2) occ(39,7,6) occ(43,7,8) occ(53,7,7) occ(14,8,3) occ(18,8,5) occ(37,8,4) occ(45,8,6)
Optimization: -40
Answer: 3
occ(1,2,6) occ(1,7,3) occ(1,1,1) occ(1,3,8) occ(1,7,1) occ(1,6,8) occ(2,1,2) occ(3,6,1) coverage(44) occ(16,1,5) occ(21,1,7) occ(49,1,3) occ(55,1,4) occ(59,1,6) occ(4,2,4) occ(14,2,3) occ(18,2,7) occ(19,2,5) occ(25,2,8) occ(47,2,1) occ(53,2,2) occ(6,3,2) occ(12,3,1) occ(13,3,7) occ(23,3,6) occ(37,3,3) occ(51,3,4) occ(57,3,5) occ(8,4,4) occ(17,4,6) occ(20,4,8) occ(27,4,7) occ(35,4,5) occ(38,4,3) occ(39,4,1) occ(45,4,2) occ(5,5,3) occ(10,5,2) occ(11,5,6) occ(15,5,8) occ(32,5,1) occ(33,5,7) occ(36,5,5) occ(43,5,4) occ(7,6,5) occ(22,6,7) occ(29,6,6) occ(34,6,3) occ(40,6,4) occ(41,6,2) occ(9,7,7) occ(26,7,6) occ(30,7,2) occ(31,7,8) occ(24,8,8) occ(28,8,4) occ(42,8,5)
Optimization: -44
Answer: 4
occ(1,2,6) occ(1,7,3) occ(1,1,1) occ(1,3,8) occ(1,7,1) occ(1,6,8) occ(2,1,2) occ(3,6,1) coverage(45) occ(16,1,3) occ(24,1,5) occ(30,1,4) occ(14,2,5) occ(18,2,1) occ(22,2,3) occ(28,2,2) occ(40,2,4) occ(4,3,1) occ(12,3,7) occ(26,3,4) occ(27,3,6) occ(32,3,5) occ(36,3,3) occ(42,3,2) occ(6,4,3) occ(20,4,2) occ(25,4,4) occ(31,4,7) occ(38,4,5) occ(5,5,3) occ(9,5,7) occ(10,5,6) occ(29,5,5) occ(34,5,4) occ(44,5,1) occ(7,6,5) occ(8,6,4) occ(15,6,7) occ(23,6,3) occ(33,6,6) occ(41,6,2) occ(11,7,6) occ(19,7,4) occ(37,7,5) occ(46,7,2) occ(13,8,8) occ(17,8,6) occ(21,8,2) occ(35,8,7) occ(39,8,3) occ(43,8,1) occ(48,8,4)
Optimization: -45
Answer: 5
occ(1,2,6) occ(1,7,3) occ(1,1,1) occ(1,3,8) occ(1,7,1) occ(1,6,8) occ(2,1,2) occ(3,6,1) coverage(46) occ(16,1,3) occ(29,1,5) occ(34,1,4) occ(35,1,6) occ(6,2,3) occ(10,2,5) occ(18,2,1) occ(27,2,7) occ(32,2,2) occ(33,2,8) occ(40,2,4) occ(4,3,1) occ(14,3,4) occ(31,3,6) occ(36,3,5) occ(37,3,7) occ(42,3,2) occ(8,4,4) occ(12,4,6) occ(15,4,5) occ(20,4,2) occ(25,4,8) occ(30,4,1) occ(38,4,3) occ(47,4,7) occ(13,5,7) occ(19,5,6) occ(28,5,3) occ(39,5,8) occ(44,5,1) occ(49,5,5) occ(11,6,5) occ(17,6,4) occ(22,6,3) occ(23,6,7) occ(45,6,6) occ(7,7,4) occ(21,7,5) occ(26,7,2) occ(41,7,7) occ(51,7,6) occ(5,8,2) occ(9,8,6) occ(24,8,4) occ(43,8,5) occ(53,8,8)
Optimization: -46
Answer: 6
occ(1,2,6) occ(1,7,3) occ(1,1,1) occ(1,3,8) occ(1,7,1) occ(1,6,8) occ(2,1,2) occ(3,6,1) coverage(55) occ(24,1,3) occ(29,1,5) occ(34,1,4) occ(35,1,6) occ(53,1,7) occ(6,2,1) occ(20,2,4) occ(27,2,7) occ(32,2,2) occ(33,2,8) occ(38,2,3) occ(51,2,5) occ(4,3,3) occ(22,3,2) occ(26,3,4) occ(31,3,6) occ(36,3,5) occ(37,3,7) occ(40,3,1) occ(8,4,2) occ(18,4,3) occ(25,4,8) occ(30,4,1) occ(44,4,4) occ(49,4,6) occ(54,4,5) occ(11,5,4) occ(16,5,1) occ(21,5,5) occ(28,5,3) occ(39,5,6) occ(42,5,2) occ(47,5,8) occ(52,5,7) occ(9,6,2) occ(10,6,3) occ(17,6,4) occ(23,6,7) occ(45,6,6) occ(46,6,5) occ(7,7,4) occ(13,7,5) occ(14,7,2) occ(19,7,6) occ(41,7,7) occ(50,7,8) occ(5,8,2) occ(12,8,4) occ(15,8,3) occ(43,8,5) occ(48,8,6)
Optimization: -55
Answer: 7
occ(1,2,6) occ(1,7,3) occ(1,1,1) occ(1,3,8) occ(1,7,1) occ(1,6,8) occ(2,1,2) occ(3,6,1) coverage(56) occ(12,1,5) occ(16,1,3) occ(29,1,7) occ(34,1,4) occ(35,1,6) occ(10,2,3) occ(18,2,1) occ(27,2,5) occ(32,2,2) occ(33,2,8) occ(40,2,4) occ(55,2,7) occ(4,3,3) occ(8,3,1) occ(14,3,4) occ(31,3,6) occ(36,3,5) occ(37,3,7) occ(42,3,2) occ(15,4,7) occ(20,4,2) occ(25,4,6) occ(30,4,1) occ(38,4,3) occ(44,4,4) occ(53,4,8) occ(54,4,5) occ(6,5,2) occ(11,5,4) occ(17,5,5) occ(28,5,3) occ(39,5,8) occ(51,5,6) occ(52,5,7) occ(9,6,2) occ(13,6,6) occ(22,6,3) occ(23,6,7) occ(45,6,4) occ(46,6,5) occ(7,7,4) occ(19,7,6) occ(26,7,2) occ(41,7,7) occ(49,7,5) occ(50,7,8) occ(5,8,2) occ(21,8,8) occ(24,8,4) occ(43,8,5) occ(47,8,3) occ(48,8,6)
Optimization: -56
Answer: 8
occ(1,2,6) occ(1,7,3) occ(1,1,1) occ(1,3,8) occ(1,7,1) occ(1,6,8) occ(2,1,2) occ(3,6,1) coverage(57) occ(20,1,3) occ(24,1,7) occ(30,1,6) occ(49,1,5) occ(55,1,4) occ(18,2,1) occ(22,2,5) occ(28,2,8) occ(32,2,4) occ(46,2,7) occ(47,2,3) occ(53,2,2) occ(4,3,1) occ(10,3,2) occ(17,3,3) occ(26,3,6) occ(41,3,7) occ(45,3,5) occ(51,3,4) occ(8,4,4) occ(11,4,3) occ(16,4,2) occ(19,4,1) occ(34,4,5) occ(44,4,6) occ(48,4,8) occ(6,5,2) occ(9,5,5) occ(12,5,1) occ(15,5,4) occ(21,5,3) occ(36,5,7) occ(39,5,8) occ(43,5,6) occ(13,6,2) occ(14,6,3) occ(25,6,4) occ(33,6,6) occ(42,6,5) occ(50,6,7) occ(7,7,4) occ(23,7,2) occ(29,7,5) occ(37,7,7) occ(38,7,8) occ(54,7,6) occ(5,8,2) occ(27,8,3) occ(31,8,7) occ(35,8,5) occ(40,8,6) occ(52,8,8) occ(56,8,4)
Optimization: -57
*** Info : (clingo): INTERRUPTED by signal!
SATISFIABLE

TIME LIMIT   : 1
Models       : 8+
  Optimum    : unknown
Optimization : -57
Calls        : 1
Time         : 300.000s (Solving: 299.71s 1st Model: 0.00s Unsat: 0.00s)
CPU Time     : 299.991s
